solution status: optimal solution found
objective value:                                   15
thing.thing.lysis_y                                15 	(obj:0)
thing.thing.lysis_z                                18 	(obj:0)
thing.thing.elute_y                                16 	(obj:0)
thing.thing.elute_z                                16 	(obj:0)
thing.thing.chamber[0].thingy.v4_y                   16 	(obj:0)
thing.thing.chamber[0].thingy.v4_z                   17 	(obj:0)
thing.thing.chamber[0].thingy.v8_y                   16 	(obj:0)
thing.thing.chamber[0].thingy.v8_z                   20 	(obj:0)
thing.thing.wash_y                                 15 	(obj:0)
thing.thing.wash_z                                 20 	(obj:0)
thing.thing.chamber[0].thingy.v6_y                   15 	(obj:0)
thing.thing.chamber[0].thingy.v6_z                   16 	(obj:0)
x16                                                 1 	(obj:1)
x17                                                 2 	(obj:1)
x19                                                 1 	(obj:1)
x23                                                 1 	(obj:1)
x24                                                 2 	(obj:1)
x25                                                 1 	(obj:1)
x27                                                 1 	(obj:1)
x33                                                 1 	(obj:1)
x38                                                 1 	(obj:1)
x41                                                 2 	(obj:1)
x45                                                 2 	(obj:1)
